c Random generated cnf formula, satisfiable: false
p cnf 10 50
-8 3 2 0
7 4 9 0
-6 10 -5 0
-3 -10 6 0
-7 9 4 0
-6 2 9 0
7 -6 5 0
8 1 -6 0
-1 6 9 0
8 -7 6 0
-9 4 -10 0
-4 8 -1 0
-7 -5 -10 0
-7 -6 -2 0
8 1 4 0
8 3 5 0
3 -6 -4 0
8 10 1 0
6 -2 -4 0
-5 -3 -7 0
5 9 8 0
2 3 8 0
10 9 2 0
-1 4 -10 0
8 2 -5 0
-8 2 -10 0
-1 7 -9 0
6 1 4 0
-10 -7 -8 0
-5 -3 -1 0
-8 10 -7 0
-9 8 6 0
2 10 6 0
-1 -7 -9 0
-2 -6 -3 0
-9 -6 -3 0
9 -1 2 0
6 1 -10 0
-2 -3 8 0
2 6 -9 0
3 4 10 0
-4 6 -7 0
-10 8 2 0
6 7 8 0
5 -7 -8 0
4 7 10 0
8 -2 -7 0
-4 -6 -10 0
-8 1 -6 0
-2 -10 -3 0
